15
0 3 7 8 9 4 8 9 9 10 8 4 3 9 4 
3 0 3 2 4 8 11 3 7 8 6 7 11 6 6 
7 3 0 8 3 2 6 11 9 10 2 11 11 7 7 
8 2 8 0 6 5 11 3 6 11 6 4 4 6 6 
9 4 3 6 0 10 6 6 3 11 3 3 10 6 9 
4 8 2 5 10 0 6 4 8 11 3 2 8 11 6 
8 11 6 11 6 6 0 9 10 11 7 10 4 10 7 
9 3 11 3 6 4 9 0 4 7 7 3 6 11 2 
9 7 9 6 3 8 10 4 0 10 7 6 6 10 7 
10 8 10 11 11 11 11 7 10 0 9 3 9 4 3 
8 6 2 6 3 3 7 7 7 9 0 2 6 4 4 
4 7 11 4 3 2 10 3 6 3 2 0 11 10 3 
3 11 11 4 10 8 4 6 6 9 6 11 0 3 8 
9 6 7 6 6 11 10 11 10 4 4 10 3 0 3 
4 6 7 6 9 6 7 2 7 3 4 3 8 3 0 

